GLPSOL: GLPK LP/MIP Solver, v4.55
Parameter(s) specified in the command line:
 -m tmp.mod
Reading model section from tmp.mod...
Reading data section from tmp.mod...
2567 lines were read
Generating obj...
Generating kirhoff...
Generating init_charge...
Generating batt_size...
Model has been successfully generated
GLPK Simplex Optimizer, v4.55
3332 rows, 3947 columns, 8242 non-zeros
Preprocessing...
2011 rows, 3846 columns, 8029 non-zeros
Scaling...
 A: min|aij| =  1.000e+00  max|aij| =  1.000e+00  ratio =  1.000e+00
Problem data seem to be well scaled
Constructing initial basis...
Size of triangular part is 1616
      0: obj =   0.000000000e+00  infeas =  9.540e+02 (395)
    500: obj =   1.250000000e+02  infeas =  2.600e+01 (284)
*   589: obj =   1.400000000e+02  infeas =  0.000e+00 (276)
*   796: obj =   4.000000000e+01  infeas =  0.000e+00 (274)
OPTIMAL LP SOLUTION FOUND
Time used:   0.1 secs
Memory used: 8.3 Mb (8740919 bytes)
#OUTPUT:
40
-17 0 -43 -14 0 0 0 0 0 0 0 0 0 0 0 0 -5 0 0 -5 0 -1 0 0 0 2 0 0 -11 -5 0 0 0 5 2 -1 0 0 0 0 0 0 0 -21 0 0 -7 0 0 0 2 -22 3 0 0 0 0 5 0 0 0 -4 -5 0 0 0 2 0 0 0 0 -2 0 0 0 5 -5 0 0 0 0 1 0 1 0 0 0 1 0 0 0 0 0 -41 0 0 0 0 -4 0 0 0 0 0 1 0 0 -2 0 0 0 -41 0 0 0 0 1 0 0 0 0 0 0 0 -7 0 2 0 0 0 0 0 0 0 0 0 0 0 0 0 0 0 0 -1 -2 0 1 4 1 0 0 0 0 0 0 0 0 0 1 0 0 0 0 0 0 0 0 0 0 0 0 0 0 -8 0 0 0 -1 0 0 0 5 0 0 0 0 0 0 0 0 0 0 0 0 0 0 0 0 0 0 0 0 0 0 0 0 0 0 0 1 -3 0 0 0 0 0 0 0 0 0 0 5 1 0 -5 0 0 -4 0 0 -22 0 0 0 0 0 0 0 0 0 2 0 2 -4 -1 0 0 0 0 -1 0 0 0 0 0 0 0 1 0 -5 0 0 0 -2 0 2 0 -1 3 0 0 0 0 0 0 0 0 0 0 0 0 0 0 0 0 0 0 0 0 0 0 0 0 0 0 0 0 0 0 0 0 0 0 0 0 0 0 0 0 0 0 0 0 0 0 0 0 0 0 0 0 0 0 0 0 0 0 0 0 0 0 0 0 0 0 0 0 0 0 0 0 0 0 0 0 0 0 0 0 0 0 0 0 0 0 0 0 0 0 
-30 -1 -15 -27 -1 -5 4 -23 2 0 1 0 0 0 7 0 0 0 0 -11 0 0 0 0 0 2 -4 -1 -6 -6 0 0 -1 0 2 0 0 0 3 0 0 1 0 0 0 0 -7 0 0 0 2 -4 3 0 0 0 0 6 0 0 0 -6 0 0 0 -1 2 0 0 0 0 -2 -3 0 0 18 0 0 0 0 0 1 0 1 0 0 0 0 0 0 2 0 0 0 0 0 0 0 -4 0 0 0 0 0 2 0 -3 0 0 0 0 0 0 0 0 0 0 0 0 0 0 0 4 0 -7 0 2 0 0 1 3 0 0 0 0 0 0 0 -2 0 0 0 1 -5 0 -30 4 0 0 0 0 0 -1 -1 0 0 0 0 4 0 0 0 1 0 0 0 0 0 0 0 0 0 0 -7 0 -2 0 0 0 0 0 6 0 0 0 0 0 0 0 0 0 0 0 0 0 0 0 0 0 0 0 0 0 0 0 0 0 0 0 1 -3 0 0 0 0 0 0 0 1 0 3 0 1 0 -18 0 0 -5 3 0 0 0 0 1 0 0 -3 0 2 0 0 0 -4 0 0 0 1 0 -4 0 0 0 4 -5 0 0 2 0 0 -6 0 0 0 -2 0 2 0 -1 3 0 0 0 0 0 0 0 0 0 0 0 0 0 0 0 0 0 0 0 0 0 0 0 0 0 0 0 0 0 0 0 0 0 0 0 0 0 0 0 0 0 0 0 0 0 0 0 0 0 0 0 0 0 0 0 0 0 0 0 0 0 0 0 0 0 0 0 0 0 0 0 0 0 0 0 0 0 0 0 0 0 0 0 0 0 0 0 0 0 0 
-23 -1 -36 -37 -1 3 -1 -1 -3 -1 -2 27 0 0 2 0 -5 0 -3 -7 -5 -2 0 5 0 0 -3 1 -2 -6 0 0 0 -27 0 -2 0 0 0 0 -38 1 0 -14 0 0 -8 0 -3 0 0 -4 9 0 0 0 41 6 0 0 27 -2 0 0 -3 0 8 -27 -3 0 -3 -2 0 0 0 15 -10 0 0 0 41 1 0 1 0 0 0 -1 0 0 0 0 27 0 0 0 0 0 -2 0 1 0 0 -5 1 0 -3 0 0 0 -35 0 0 0 0 0 -1 0 0 0 0 -3 0 0 -5 0 0 0 0 1 0 0 0 0 0 0 0 0 0 -3 0 0 0 0 0 6 4 -27 3 0 0 0 0 0 0 0 -3 0 4 0 0 0 1 0 0 0 0 0 0 0 0 0 6 -8 0 0 0 -21 0 6 0 6 0 0 0 0 0 0 0 0 27 0 0 0 0 0 0 0 0 0 -45 0 0 0 0 0 0 0 0 1 -3 0 0 0 0 0 0 0 -1 0 3 0 -2 0 -16 -1 0 -4 3 35 0 2 -2 2 0 0 0 0 0 0 0 0 -4 11 -3 0 0 -3 -4 0 0 -1 0 0 0 0 0 21 -6 -6 0 -27 0 -2 0 2 0 -1 6 -3 0 0 0 0 0 0 0 0 0 0 0 0 0 0 0 0 0 0 0 0 0 0 0 0 0 0 0 0 0 0 0 0 0 0 0 0 0 0 0 0 0 0 0 0 0 0 0 0 0 0 0 0 0 0 0 0 0 0 0 0 0 0 0 0 0 0 0 0 0 0 0 0 0 0 0 0 0 0 0 0 0 0 0 0 0 0 0 0 0 
-38 1 -43 -28 0 0 0 4 3 1 1 0 0 0 1 1 5 0 0 -41 3 1 0 0 0 -1 3 0 17 7 0 0 0 -5 0 1 0 0 0 0 0 -1 1 -6 0 0 7 -3 3 0 0 -19 -7 0 0 0 0 -5 0 0 0 3 5 0 0 0 -6 0 0 0 3 0 0 0 0 -13 5 0 0 0 0 -1 0 -1 0 0 0 0 1 0 0 0 0 12 0 0 0 0 3 0 0 0 0 3 -1 0 3 9 0 0 -6 12 0 2 0 0 0 0 0 0 0 3 0 -2 7 0 0 0 0 -1 0 0 0 0 0 0 0 0 0 0 0 0 0 5 9 -1 0 -14 -1 0 0 0 0 0 0 0 3 0 0 0 0 0 -1 0 0 2 0 1 0 0 0 0 -6 8 0 -9 0 -9 0 -6 0 -5 0 0 0 0 0 0 0 0 0 0 0 0 0 0 0 0 0 1 0 0 0 0 0 0 0 0 0 -1 3 0 0 0 0 0 0 0 0 -1 0 -5 3 0 14 0 0 4 -3 6 -14 0 0 -1 0 0 0 0 0 0 -9 0 0 14 1 0 0 3 -5 5 0 1 0 0 -2 0 9 9 6 5 0 0 0 0 0 -1 0 1 -3 0 0 0 0 0 0 0 0 0 0 0 0 0 0 0 0 0 0 0 0 0 0 0 0 0 0 0 0 0 0 0 0 0 0 0 0 0 0 0 0 0 0 0 0 0 0 0 0 0 0 0 0 0 0 0 0 0 0 0 0 0 0 0 0 0 0 0 0 0 0 0 0 0 0 0 0 0 0 0 0 0 0 0 0 0 0 0 0 0 0 
-36 0 -32 -1 0 4 -4 0 0 1 1 0 0 0 0 0 3 0 0 -16 0 0 0 0 7 -2 0 0 -35 -10 0 1 0 -7 -2 0 0 0 0 1 0 -1 0 0 0 0 -2 0 0 0 -2 0 -1 1 0 0 0 5 1 0 0 -1 0 0 0 0 -1 -7 0 0 0 0 0 0 0 0 3 0 0 0 0 0 0 0 0 0 0 -1 0 0 0 0 0 0 0 0 0 0 1 -1 0 0 -1 0 0 0 0 -34 0 0 0 0 0 0 0 0 0 0 0 0 0 0 -12 0 -2 0 -2 0 0 -1 0 0 0 0 0 0 0 0 -2 0 0 0 0 -5 -34 0 0 0 0 0 0 0 0 0 0 0 0 0 0 0 0 0 -1 -6 0 0 0 0 0 0 0 0 0 -2 0 -9 0 3 0 0 0 5 0 0 0 0 0 0 0 0 6 -23 0 0 0 0 0 0 0 0 0 0 0 0 0 0 -6 0 0 1 0 0 0 0 0 0 0 0 0 0 0 0 1 1 0 0 1 0 0 0 0 0 0 1 0 0 0 0 0 -5 36 -2 0 0 0 0 0 0 0 0 0 0 11 -10 0 0 9 -3 0 -5 0 -6 0 0 0 0 6 -1 0 0 0 0 0 0 0 0 0 0 0 0 0 0 0 0 0 0 0 0 0 0 0 0 0 0 0 0 0 0 0 0 0 0 0 0 0 0 0 0 0 0 0 0 0 0 0 0 0 0 0 0 0 0 0 0 0 0 0 0 0 0 0 0 0 0 0 0 0 0 0 0 0 0 0 0 0 0 0 0 0 0 0 0 0 0 0 0 0 0 0 
#OUTPUT END
Model has been successfully processed
